(set-logic ALL)
(declare-const string_VAR String)
(declare-const separator_VAR String)
(assert (< 0 (str.len string_VAR)))
(assert (> (str.len string_VAR) 0))
(assert (= (str.at string_VAR 0) separator_VAR))
(check-sat)
(get-value (string_VAR))
(get-value (separator_VAR))
